CMPL model generation - running

CMPL version: 1.11.0
Authors: Thomas Schleiff, Mike Steglich
Distributed under the GPLv3 

create model instance ...
write model instance ...
CMPL model generation - finished

Solver - running


Welcome to IBM(R) ILOG(R) CPLEX(R) Interactive Optimizer 12.7.1.0
  with Simplex, Mixed Integer & Barrier Optimizers
5725-A06 5725-A29 5724-Y48 5724-Y49 5724-Y54 5724-Y55 5655-Y21
Copyright IBM Corp. 1988, 2017.  All Rights Reserved.

Type 'help' for a list of available commands.
Type 'help' followed by a command name for more
information on commands.

CPLEX> Specified objective sense: MINIMIZE
Selected objective  name:  line[1]
Selected RHS        name:  RHS
Selected bound      name:  BOUND
Problem '/tmp/cmpl.T23992.mps' read.
Read time = 0.06 sec. (10.12 ticks)
CPLEX> CPXPARAM_Read_APIEncoding                        "UTF-8"
Tried aggregator 3 times.
MIP Presolve eliminated 24028 rows and 37627 columns.
MIP Presolve modified 425 coefficients.
Aggregator did 748 substitutions.
Reduced MIP has 3146 rows, 4080 columns, and 12074 nonzeros.
Reduced MIP has 3870 binaries, 0 generals, 0 SOSs, and 0 indicators.
Presolve time = 0.06 sec. (51.93 ticks)
Found incumbent of value 1556.472223 after 0.13 sec. (108.74 ticks)
Probing fixed 12 vars, tightened 0 bounds.
Probing time = 0.02 sec. (5.26 ticks)
Tried aggregator 1 time.
MIP Presolve eliminated 0 rows and 12 columns.
MIP Presolve modified 62 coefficients.
Reduced MIP has 3146 rows, 4068 columns, and 12050 nonzeros.
Reduced MIP has 4068 binaries, 0 generals, 0 SOSs, and 0 indicators.
Presolve time = 0.01 sec. (10.21 ticks)
Probing time = 0.01 sec. (2.84 ticks)
Clique table members: 7372.
MIP emphasis: balance optimality and feasibility.
MIP search method: dynamic search.
Parallel mode: none, using 1 thread.
Root relaxation solution time = 0.01 sec. (5.78 ticks)

        Nodes                                         Cuts/
   Node  Left     Objective  IInf  Best Integer    Best Bound    ItCnt     Gap

*     0+    0                         1556.4722      -38.1556           102.45%
      0     0      157.5373    15     1556.4722      157.5373      143   89.88%
*     0+    0                          173.7154      157.5373             9.31%
*     0+    0                          157.8802      157.5373             0.22%
*     0     0      integral     0      157.8583      Cuts: 29      155    0.00%
      0     0        cutoff            157.8583      157.8583      155    0.00%
Elapsed time = 0.23 sec. (157.52 ticks, tree = 0.01 MB, solutions = 4)

Clique cuts applied:  5
Cover cuts applied:  16
Gomory fractional cuts applied:  8

Root node processing (before b&c):
  Real time             =    0.23 sec. (159.63 ticks)
Sequential b&c:
  Real time             =    0.00 sec. (0.00 ticks)
                          ------------
Total (root+branch&cut) =    0.23 sec. (159.63 ticks)

Solution pool: 4 solutions saved.

MIP - Integer optimal solution:  Objective =  1.5785834400e+02
Solution time =    0.23 sec.  Iterations = 155  Nodes = 0
Deterministic time = 159.75 ticks  (684.11 ticks/sec)

CPLEX> Incumbent solution written to file '/tmp/cmpl.T23992.gsol'.
CPLEX> 
CMPL: Time used for model generation: 1 seconds
CMPL: Time used for solving the model: 1 seconds


Solution written to ASCII file: results/output_generated_conf_0.4/2016-05-02-5/fair-nonlinear.sol

Solver - finished
